66
63
99
3
89
62
96
27
26
82
35
70
41
93
4
31
38
44
2
17
8
45
81
83
48
57
51
54
50
52
34
76
13
59
95
11
65
77
40
21
87
67
15
10
68
39
74
90
78
49
9
43
97
1
18
46
12
30
71
16
55
25
92
47
64
20
86
91
84
56
88
23
14
94
32
6
79
42
24
37
0
53
60
72
33
58
69
7
75
80
29
36
73
28
85
98
61
19
5
22
